utils/lkh_output7.tour
NAME : tsp_file.tsp.420.tour
COMMENT : Length = 420
COMMENT : Found by LKH-3 [Keld Helsgaun] Wed Jun 14 10:44:29 2023
TYPE : TOUR
DIMENSION : 30
TOUR_SECTION
1
6
23
22
12
16
11
24
14
19
27
30
29
15
25
21
18
20
4
9
26
7
2
13
5
17
10
8
3
28
-1
EOF
